(set-option :produce-models true)
(set-logic QF_LRA)
(set-info :notes | Strip-packing problem.|)
(declare-fun x0 () Real)
(declare-fun y0 () Real)
(declare-fun x1 () Real)
(declare-fun y1 () Real)
(declare-fun x2 () Real)
(declare-fun y2 () Real)
(declare-fun x3 () Real)
(declare-fun y3 () Real)
(declare-fun x4 () Real)
(declare-fun y4 () Real)
(declare-fun x5 () Real)
(declare-fun y5 () Real)
(declare-fun x6 () Real)
(declare-fun y6 () Real)
(declare-fun x7 () Real)
(declare-fun y7 () Real)
(declare-fun x8 () Real)
(declare-fun y8 () Real)
(declare-fun x9 () Real)
(declare-fun y9 () Real)
(declare-fun x10 () Real)
(declare-fun y10 () Real)
(declare-fun x11 () Real)
(declare-fun y11 () Real)
(declare-fun x12 () Real)
(declare-fun y12 () Real)
(declare-fun x13 () Real)
(declare-fun y13 () Real)
(declare-fun x14 () Real)
(declare-fun y14 () Real)
(declare-fun z () Real)
(declare-fun c () Real)
(assert (and (= c z) (and (>= x0 0) 
(and (>= y0 0) 
(and (>= x1 0) 
(and (>= y1 0) 
(and (>= x2 0) 
(and (>= y2 0) 
(and (>= x3 0) 
(and (>= y3 0) 
(and (>= x4 0) 
(and (>= y4 0) 
(and (>= x5 0) 
(and (>= y5 0) 
(and (>= x6 0) 
(and (>= y6 0) 
(and (>= x7 0) 
(and (>= y7 0) 
(and (>= x8 0) 
(and (>= y8 0) 
(and (>= x9 0) 
(and (>= y9 0) 
(and (>= x10 0) 
(and (>= y10 0) 
(and (>= x11 0) 
(and (>= y11 0) 
(and (>= x12 0) 
(and (>= y12 0) 
(and (>= x13 0) 
(and (>= y13 0) 
(and (>= x14 0) 
(and (>= y14 0) 
(and (>= z 0) 
(and (>= c 0) 
(and (<= (+ x0 0.3639704758) z) 
(and (<= 0.9017742082 y0) 
(and (<= y0 1.0) 
(and (<= x0 (- 5.3101533663 0.3639704758)) 
(and (>= x0 0) 
(and (<= (+ x1 0.8106036061) z) 
(and (<= 0.8390675067 y1) 
(and (<= y1 1.0) 
(and (<= x1 (- 5.3101533663 0.8106036061)) 
(and (>= x1 0) 
(and (<= (+ x2 0.1751874766) z) 
(and (<= 0.8190612156 y2) 
(and (<= y2 1.0) 
(and (<= x2 (- 5.3101533663 0.1751874766)) 
(and (>= x2 0) 
(and (<= (+ x3 0.1565532609) z) 
(and (<= 0.78595423 y3) 
(and (<= y3 1.0) 
(and (<= x3 (- 5.3101533663 0.1565532609)) 
(and (>= x3 0) 
(and (<= (+ x4 0.7443163318) z) 
(and (<= 0.6940990197 y4) 
(and (<= y4 1.0) 
(and (<= x4 (- 5.3101533663 0.7443163318)) 
(and (>= x4 0) 
(and (<= (+ x5 0.4172238457) z) 
(and (<= 0.5855740208 y5) 
(and (<= y5 1.0) 
(and (<= x5 (- 5.3101533663 0.4172238457)) 
(and (>= x5 0) 
(and (<= (+ x6 0.6413226685) z) 
(and (<= 0.5306056177 y6) 
(and (<= y6 1.0) 
(and (<= x6 (- 5.3101533663 0.6413226685)) 
(and (>= x6 0) 
(and (<= (+ x7 0.1677594766) z) 
(and (<= 0.4876809495 y7) 
(and (<= y7 1.0) 
(and (<= x7 (- 5.3101533663 0.1677594766)) 
(and (>= x7 0) 
(and (<= (+ x8 0.5759198435) z) 
(and (<= 0.411485986 y8) 
(and (<= y8 1.0) 
(and (<= x8 (- 5.3101533663 0.5759198435)) 
(and (>= x8 0) 
(and (<= (+ x9 0.2055391822) z) 
(and (<= 0.3750200397 y9) 
(and (<= y9 1.0) 
(and (<= x9 (- 5.3101533663 0.2055391822)) 
(and (>= x9 0) 
(and (<= (+ x10 0.1282918878) z) 
(and (<= 0.3635382542 y10) 
(and (<= y10 1.0) 
(and (<= x10 (- 5.3101533663 0.1282918878)) 
(and (>= x10 0) 
(and (<= (+ x11 0.8756083505) z) 
(and (<= 0.3133226951 y11) 
(and (<= y11 1.0) 
(and (<= x11 (- 5.3101533663 0.8756083505)) 
(and (>= x11 0) 
(and (<= (+ x12 0.6230376976) z) 
(and (<= 0.0732114923 y12) 
(and (<= y12 1.0) 
(and (<= x12 (- 5.3101533663 0.6230376976)) 
(and (>= x12 0) 
(and (<= (+ x13 0.9576078738) z) 
(and (<= 0.0470279399 y13) 
(and (<= y13 1.0) 
(and (<= x13 (- 5.3101533663 0.9576078738)) 
(and (>= x13 0) 
(and (<= (+ x14 0.8960158685) z) 
(and (<= 0.0268935425 y14) 
(and (<= y14 1.0) 
(and (<= x14 (- 5.3101533663 0.8960158685)) 
(and (>= x14 0) 
(and (<= c 5.3101533663) 
(and (or (<= (+ x0 0.3639704758) x1) (or (<= (+ x1 0.8106036061) x0) (or (>= (- y0 0.9017742082) y1) (or (>= (- y1 0.8390675067) y0))))) 
(and (or (<= (+ x0 0.3639704758) x2) (or (<= (+ x2 0.1751874766) x0) (or (>= (- y0 0.9017742082) y2) (or (>= (- y2 0.8190612156) y0))))) 
(and (or (<= (+ x0 0.3639704758) x3) (or (<= (+ x3 0.1565532609) x0) (or (>= (- y0 0.9017742082) y3) (or (>= (- y3 0.78595423) y0))))) 
(and (or (<= (+ x0 0.3639704758) x4) (or (<= (+ x4 0.7443163318) x0) (or (>= (- y0 0.9017742082) y4) (or (>= (- y4 0.6940990197) y0))))) 
(and (or (<= (+ x0 0.3639704758) x5) (or (<= (+ x5 0.4172238457) x0) (or (>= (- y0 0.9017742082) y5) (or (>= (- y5 0.5855740208) y0))))) 
(and (or (<= (+ x0 0.3639704758) x6) (or (<= (+ x6 0.6413226685) x0) (or (>= (- y0 0.9017742082) y6) (or (>= (- y6 0.5306056177) y0))))) 
(and (or (<= (+ x0 0.3639704758) x7) (or (<= (+ x7 0.1677594766) x0) (or (>= (- y0 0.9017742082) y7) (or (>= (- y7 0.4876809495) y0))))) 
(and (or (<= (+ x0 0.3639704758) x8) (or (<= (+ x8 0.5759198435) x0) (or (>= (- y0 0.9017742082) y8) (or (>= (- y8 0.411485986) y0))))) 
(and (or (<= (+ x0 0.3639704758) x9) (or (<= (+ x9 0.2055391822) x0) (or (>= (- y0 0.9017742082) y9) (or (>= (- y9 0.3750200397) y0))))) 
(and (or (<= (+ x0 0.3639704758) x10) (or (<= (+ x10 0.1282918878) x0) (or (>= (- y0 0.9017742082) y10) (or (>= (- y10 0.3635382542) y0))))) 
(and (or (<= (+ x0 0.3639704758) x11) (or (<= (+ x11 0.8756083505) x0) (or (>= (- y0 0.9017742082) y11) (or (>= (- y11 0.3133226951) y0))))) 
(and (or (<= (+ x0 0.3639704758) x12) (or (<= (+ x12 0.6230376976) x0) (or (>= (- y0 0.9017742082) y12) (or (>= (- y12 0.0732114923) y0))))) 
(and (or (<= (+ x0 0.3639704758) x13) (or (<= (+ x13 0.9576078738) x0) (or (>= (- y0 0.9017742082) y13) (or (>= (- y13 0.0470279399) y0))))) 
(and (or (<= (+ x0 0.3639704758) x14) (or (<= (+ x14 0.8960158685) x0) (or (>= (- y0 0.9017742082) y14) (or (>= (- y14 0.0268935425) y0))))) 
(and (or (<= (+ x1 0.8106036061) x2) (or (<= (+ x2 0.1751874766) x1) (or (>= (- y1 0.8390675067) y2) (or (>= (- y2 0.8190612156) y1))))) 
(and (or (<= (+ x1 0.8106036061) x3) (or (<= (+ x3 0.1565532609) x1) (or (>= (- y1 0.8390675067) y3) (or (>= (- y3 0.78595423) y1))))) 
(and (or (<= (+ x1 0.8106036061) x4) (or (<= (+ x4 0.7443163318) x1) (or (>= (- y1 0.8390675067) y4) (or (>= (- y4 0.6940990197) y1))))) 
(and (or (<= (+ x1 0.8106036061) x5) (or (<= (+ x5 0.4172238457) x1) (or (>= (- y1 0.8390675067) y5) (or (>= (- y5 0.5855740208) y1))))) 
(and (or (<= (+ x1 0.8106036061) x6) (or (<= (+ x6 0.6413226685) x1) (or (>= (- y1 0.8390675067) y6) (or (>= (- y6 0.5306056177) y1))))) 
(and (or (<= (+ x1 0.8106036061) x7) (or (<= (+ x7 0.1677594766) x1) (or (>= (- y1 0.8390675067) y7) (or (>= (- y7 0.4876809495) y1))))) 
(and (or (<= (+ x1 0.8106036061) x8) (or (<= (+ x8 0.5759198435) x1) (or (>= (- y1 0.8390675067) y8) (or (>= (- y8 0.411485986) y1))))) 
(and (or (<= (+ x1 0.8106036061) x9) (or (<= (+ x9 0.2055391822) x1) (or (>= (- y1 0.8390675067) y9) (or (>= (- y9 0.3750200397) y1))))) 
(and (or (<= (+ x1 0.8106036061) x10) (or (<= (+ x10 0.1282918878) x1) (or (>= (- y1 0.8390675067) y10) (or (>= (- y10 0.3635382542) y1))))) 
(and (or (<= (+ x1 0.8106036061) x11) (or (<= (+ x11 0.8756083505) x1) (or (>= (- y1 0.8390675067) y11) (or (>= (- y11 0.3133226951) y1))))) 
(and (or (<= (+ x1 0.8106036061) x12) (or (<= (+ x12 0.6230376976) x1) (or (>= (- y1 0.8390675067) y12) (or (>= (- y12 0.0732114923) y1))))) 
(and (or (<= (+ x1 0.8106036061) x13) (or (<= (+ x13 0.9576078738) x1) (or (>= (- y1 0.8390675067) y13) (or (>= (- y13 0.0470279399) y1))))) 
(and (or (<= (+ x1 0.8106036061) x14) (or (<= (+ x14 0.8960158685) x1) (or (>= (- y1 0.8390675067) y14) (or (>= (- y14 0.0268935425) y1))))) 
(and (or (<= (+ x2 0.1751874766) x3) (or (<= (+ x3 0.1565532609) x2) (or (>= (- y2 0.8190612156) y3) (or (>= (- y3 0.78595423) y2))))) 
(and (or (<= (+ x2 0.1751874766) x4) (or (<= (+ x4 0.7443163318) x2) (or (>= (- y2 0.8190612156) y4) (or (>= (- y4 0.6940990197) y2))))) 
(and (or (<= (+ x2 0.1751874766) x5) (or (<= (+ x5 0.4172238457) x2) (or (>= (- y2 0.8190612156) y5) (or (>= (- y5 0.5855740208) y2))))) 
(and (or (<= (+ x2 0.1751874766) x6) (or (<= (+ x6 0.6413226685) x2) (or (>= (- y2 0.8190612156) y6) (or (>= (- y6 0.5306056177) y2))))) 
(and (or (<= (+ x2 0.1751874766) x7) (or (<= (+ x7 0.1677594766) x2) (or (>= (- y2 0.8190612156) y7) (or (>= (- y7 0.4876809495) y2))))) 
(and (or (<= (+ x2 0.1751874766) x8) (or (<= (+ x8 0.5759198435) x2) (or (>= (- y2 0.8190612156) y8) (or (>= (- y8 0.411485986) y2))))) 
(and (or (<= (+ x2 0.1751874766) x9) (or (<= (+ x9 0.2055391822) x2) (or (>= (- y2 0.8190612156) y9) (or (>= (- y9 0.3750200397) y2))))) 
(and (or (<= (+ x2 0.1751874766) x10) (or (<= (+ x10 0.1282918878) x2) (or (>= (- y2 0.8190612156) y10) (or (>= (- y10 0.3635382542) y2))))) 
(and (or (<= (+ x2 0.1751874766) x11) (or (<= (+ x11 0.8756083505) x2) (or (>= (- y2 0.8190612156) y11) (or (>= (- y11 0.3133226951) y2))))) 
(and (or (<= (+ x2 0.1751874766) x12) (or (<= (+ x12 0.6230376976) x2) (or (>= (- y2 0.8190612156) y12) (or (>= (- y12 0.0732114923) y2))))) 
(and (or (<= (+ x2 0.1751874766) x13) (or (<= (+ x13 0.9576078738) x2) (or (>= (- y2 0.8190612156) y13) (or (>= (- y13 0.0470279399) y2))))) 
(and (or (<= (+ x2 0.1751874766) x14) (or (<= (+ x14 0.8960158685) x2) (or (>= (- y2 0.8190612156) y14) (or (>= (- y14 0.0268935425) y2))))) 
(and (or (<= (+ x3 0.1565532609) x4) (or (<= (+ x4 0.7443163318) x3) (or (>= (- y3 0.78595423) y4) (or (>= (- y4 0.6940990197) y3))))) 
(and (or (<= (+ x3 0.1565532609) x5) (or (<= (+ x5 0.4172238457) x3) (or (>= (- y3 0.78595423) y5) (or (>= (- y5 0.5855740208) y3))))) 
(and (or (<= (+ x3 0.1565532609) x6) (or (<= (+ x6 0.6413226685) x3) (or (>= (- y3 0.78595423) y6) (or (>= (- y6 0.5306056177) y3))))) 
(and (or (<= (+ x3 0.1565532609) x7) (or (<= (+ x7 0.1677594766) x3) (or (>= (- y3 0.78595423) y7) (or (>= (- y7 0.4876809495) y3))))) 
(and (or (<= (+ x3 0.1565532609) x8) (or (<= (+ x8 0.5759198435) x3) (or (>= (- y3 0.78595423) y8) (or (>= (- y8 0.411485986) y3))))) 
(and (or (<= (+ x3 0.1565532609) x9) (or (<= (+ x9 0.2055391822) x3) (or (>= (- y3 0.78595423) y9) (or (>= (- y9 0.3750200397) y3))))) 
(and (or (<= (+ x3 0.1565532609) x10) (or (<= (+ x10 0.1282918878) x3) (or (>= (- y3 0.78595423) y10) (or (>= (- y10 0.3635382542) y3))))) 
(and (or (<= (+ x3 0.1565532609) x11) (or (<= (+ x11 0.8756083505) x3) (or (>= (- y3 0.78595423) y11) (or (>= (- y11 0.3133226951) y3))))) 
(and (or (<= (+ x3 0.1565532609) x12) (or (<= (+ x12 0.6230376976) x3) (or (>= (- y3 0.78595423) y12) (or (>= (- y12 0.0732114923) y3))))) 
(and (or (<= (+ x3 0.1565532609) x13) (or (<= (+ x13 0.9576078738) x3) (or (>= (- y3 0.78595423) y13) (or (>= (- y13 0.0470279399) y3))))) 
(and (or (<= (+ x3 0.1565532609) x14) (or (<= (+ x14 0.8960158685) x3) (or (>= (- y3 0.78595423) y14) (or (>= (- y14 0.0268935425) y3))))) 
(and (or (<= (+ x4 0.7443163318) x5) (or (<= (+ x5 0.4172238457) x4) (or (>= (- y4 0.6940990197) y5) (or (>= (- y5 0.5855740208) y4))))) 
(and (or (<= (+ x4 0.7443163318) x6) (or (<= (+ x6 0.6413226685) x4) (or (>= (- y4 0.6940990197) y6) (or (>= (- y6 0.5306056177) y4))))) 
(and (or (<= (+ x4 0.7443163318) x7) (or (<= (+ x7 0.1677594766) x4) (or (>= (- y4 0.6940990197) y7) (or (>= (- y7 0.4876809495) y4))))) 
(and (or (<= (+ x4 0.7443163318) x8) (or (<= (+ x8 0.5759198435) x4) (or (>= (- y4 0.6940990197) y8) (or (>= (- y8 0.411485986) y4))))) 
(and (or (<= (+ x4 0.7443163318) x9) (or (<= (+ x9 0.2055391822) x4) (or (>= (- y4 0.6940990197) y9) (or (>= (- y9 0.3750200397) y4))))) 
(and (or (<= (+ x4 0.7443163318) x10) (or (<= (+ x10 0.1282918878) x4) (or (>= (- y4 0.6940990197) y10) (or (>= (- y10 0.3635382542) y4))))) 
(and (or (<= (+ x4 0.7443163318) x11) (or (<= (+ x11 0.8756083505) x4) (or (>= (- y4 0.6940990197) y11) (or (>= (- y11 0.3133226951) y4))))) 
(and (or (<= (+ x4 0.7443163318) x12) (or (<= (+ x12 0.6230376976) x4) (or (>= (- y4 0.6940990197) y12) (or (>= (- y12 0.0732114923) y4))))) 
(and (or (<= (+ x4 0.7443163318) x13) (or (<= (+ x13 0.9576078738) x4) (or (>= (- y4 0.6940990197) y13) (or (>= (- y13 0.0470279399) y4))))) 
(and (or (<= (+ x4 0.7443163318) x14) (or (<= (+ x14 0.8960158685) x4) (or (>= (- y4 0.6940990197) y14) (or (>= (- y14 0.0268935425) y4))))) 
(and (or (<= (+ x5 0.4172238457) x6) (or (<= (+ x6 0.6413226685) x5) (or (>= (- y5 0.5855740208) y6) (or (>= (- y6 0.5306056177) y5))))) 
(and (or (<= (+ x5 0.4172238457) x7) (or (<= (+ x7 0.1677594766) x5) (or (>= (- y5 0.5855740208) y7) (or (>= (- y7 0.4876809495) y5))))) 
(and (or (<= (+ x5 0.4172238457) x8) (or (<= (+ x8 0.5759198435) x5) (or (>= (- y5 0.5855740208) y8) (or (>= (- y8 0.411485986) y5))))) 
(and (or (<= (+ x5 0.4172238457) x9) (or (<= (+ x9 0.2055391822) x5) (or (>= (- y5 0.5855740208) y9) (or (>= (- y9 0.3750200397) y5))))) 
(and (or (<= (+ x5 0.4172238457) x10) (or (<= (+ x10 0.1282918878) x5) (or (>= (- y5 0.5855740208) y10) (or (>= (- y10 0.3635382542) y5))))) 
(and (or (<= (+ x5 0.4172238457) x11) (or (<= (+ x11 0.8756083505) x5) (or (>= (- y5 0.5855740208) y11) (or (>= (- y11 0.3133226951) y5))))) 
(and (or (<= (+ x5 0.4172238457) x12) (or (<= (+ x12 0.6230376976) x5) (or (>= (- y5 0.5855740208) y12) (or (>= (- y12 0.0732114923) y5))))) 
(and (or (<= (+ x5 0.4172238457) x13) (or (<= (+ x13 0.9576078738) x5) (or (>= (- y5 0.5855740208) y13) (or (>= (- y13 0.0470279399) y5))))) 
(and (or (<= (+ x5 0.4172238457) x14) (or (<= (+ x14 0.8960158685) x5) (or (>= (- y5 0.5855740208) y14) (or (>= (- y14 0.0268935425) y5))))) 
(and (or (<= (+ x6 0.6413226685) x7) (or (<= (+ x7 0.1677594766) x6) (or (>= (- y6 0.5306056177) y7) (or (>= (- y7 0.4876809495) y6))))) 
(and (or (<= (+ x6 0.6413226685) x8) (or (<= (+ x8 0.5759198435) x6) (or (>= (- y6 0.5306056177) y8) (or (>= (- y8 0.411485986) y6))))) 
(and (or (<= (+ x6 0.6413226685) x9) (or (<= (+ x9 0.2055391822) x6) (or (>= (- y6 0.5306056177) y9) (or (>= (- y9 0.3750200397) y6))))) 
(and (or (<= (+ x6 0.6413226685) x10) (or (<= (+ x10 0.1282918878) x6) (or (>= (- y6 0.5306056177) y10) (or (>= (- y10 0.3635382542) y6))))) 
(and (or (<= (+ x6 0.6413226685) x11) (or (<= (+ x11 0.8756083505) x6) (or (>= (- y6 0.5306056177) y11) (or (>= (- y11 0.3133226951) y6))))) 
(and (or (<= (+ x6 0.6413226685) x12) (or (<= (+ x12 0.6230376976) x6) (or (>= (- y6 0.5306056177) y12) (or (>= (- y12 0.0732114923) y6))))) 
(and (or (<= (+ x6 0.6413226685) x13) (or (<= (+ x13 0.9576078738) x6) (or (>= (- y6 0.5306056177) y13) (or (>= (- y13 0.0470279399) y6))))) 
(and (or (<= (+ x6 0.6413226685) x14) (or (<= (+ x14 0.8960158685) x6) (or (>= (- y6 0.5306056177) y14) (or (>= (- y14 0.0268935425) y6))))) 
(and (or (<= (+ x7 0.1677594766) x8) (or (<= (+ x8 0.5759198435) x7) (or (>= (- y7 0.4876809495) y8) (or (>= (- y8 0.411485986) y7))))) 
(and (or (<= (+ x7 0.1677594766) x9) (or (<= (+ x9 0.2055391822) x7) (or (>= (- y7 0.4876809495) y9) (or (>= (- y9 0.3750200397) y7))))) 
(and (or (<= (+ x7 0.1677594766) x10) (or (<= (+ x10 0.1282918878) x7) (or (>= (- y7 0.4876809495) y10) (or (>= (- y10 0.3635382542) y7))))) 
(and (or (<= (+ x7 0.1677594766) x11) (or (<= (+ x11 0.8756083505) x7) (or (>= (- y7 0.4876809495) y11) (or (>= (- y11 0.3133226951) y7))))) 
(and (or (<= (+ x7 0.1677594766) x12) (or (<= (+ x12 0.6230376976) x7) (or (>= (- y7 0.4876809495) y12) (or (>= (- y12 0.0732114923) y7))))) 
(and (or (<= (+ x7 0.1677594766) x13) (or (<= (+ x13 0.9576078738) x7) (or (>= (- y7 0.4876809495) y13) (or (>= (- y13 0.0470279399) y7))))) 
(and (or (<= (+ x7 0.1677594766) x14) (or (<= (+ x14 0.8960158685) x7) (or (>= (- y7 0.4876809495) y14) (or (>= (- y14 0.0268935425) y7))))) 
(and (or (<= (+ x8 0.5759198435) x9) (or (<= (+ x9 0.2055391822) x8) (or (>= (- y8 0.411485986) y9) (or (>= (- y9 0.3750200397) y8))))) 
(and (or (<= (+ x8 0.5759198435) x10) (or (<= (+ x10 0.1282918878) x8) (or (>= (- y8 0.411485986) y10) (or (>= (- y10 0.3635382542) y8))))) 
(and (or (<= (+ x8 0.5759198435) x11) (or (<= (+ x11 0.8756083505) x8) (or (>= (- y8 0.411485986) y11) (or (>= (- y11 0.3133226951) y8))))) 
(and (or (<= (+ x8 0.5759198435) x12) (or (<= (+ x12 0.6230376976) x8) (or (>= (- y8 0.411485986) y12) (or (>= (- y12 0.0732114923) y8))))) 
(and (or (<= (+ x8 0.5759198435) x13) (or (<= (+ x13 0.9576078738) x8) (or (>= (- y8 0.411485986) y13) (or (>= (- y13 0.0470279399) y8))))) 
(and (or (<= (+ x8 0.5759198435) x14) (or (<= (+ x14 0.8960158685) x8) (or (>= (- y8 0.411485986) y14) (or (>= (- y14 0.0268935425) y8))))) 
(and (or (<= (+ x9 0.2055391822) x10) (or (<= (+ x10 0.1282918878) x9) (or (>= (- y9 0.3750200397) y10) (or (>= (- y10 0.3635382542) y9))))) 
(and (or (<= (+ x9 0.2055391822) x11) (or (<= (+ x11 0.8756083505) x9) (or (>= (- y9 0.3750200397) y11) (or (>= (- y11 0.3133226951) y9))))) 
(and (or (<= (+ x9 0.2055391822) x12) (or (<= (+ x12 0.6230376976) x9) (or (>= (- y9 0.3750200397) y12) (or (>= (- y12 0.0732114923) y9))))) 
(and (or (<= (+ x9 0.2055391822) x13) (or (<= (+ x13 0.9576078738) x9) (or (>= (- y9 0.3750200397) y13) (or (>= (- y13 0.0470279399) y9))))) 
(and (or (<= (+ x9 0.2055391822) x14) (or (<= (+ x14 0.8960158685) x9) (or (>= (- y9 0.3750200397) y14) (or (>= (- y14 0.0268935425) y9))))) 
(and (or (<= (+ x10 0.1282918878) x11) (or (<= (+ x11 0.8756083505) x10) (or (>= (- y10 0.3635382542) y11) (or (>= (- y11 0.3133226951) y10))))) 
(and (or (<= (+ x10 0.1282918878) x12) (or (<= (+ x12 0.6230376976) x10) (or (>= (- y10 0.3635382542) y12) (or (>= (- y12 0.0732114923) y10))))) 
(and (or (<= (+ x10 0.1282918878) x13) (or (<= (+ x13 0.9576078738) x10) (or (>= (- y10 0.3635382542) y13) (or (>= (- y13 0.0470279399) y10))))) 
(and (or (<= (+ x10 0.1282918878) x14) (or (<= (+ x14 0.8960158685) x10) (or (>= (- y10 0.3635382542) y14) (or (>= (- y14 0.0268935425) y10))))) 
(and (or (<= (+ x11 0.8756083505) x12) (or (<= (+ x12 0.6230376976) x11) (or (>= (- y11 0.3133226951) y12) (or (>= (- y12 0.0732114923) y11))))) 
(and (or (<= (+ x11 0.8756083505) x13) (or (<= (+ x13 0.9576078738) x11) (or (>= (- y11 0.3133226951) y13) (or (>= (- y13 0.0470279399) y11))))) 
(and (or (<= (+ x11 0.8756083505) x14) (or (<= (+ x14 0.8960158685) x11) (or (>= (- y11 0.3133226951) y14) (or (>= (- y14 0.0268935425) y11))))) 
(and (or (<= (+ x12 0.6230376976) x13) (or (<= (+ x13 0.9576078738) x12) (or (>= (- y12 0.0732114923) y13) (or (>= (- y13 0.0470279399) y12))))) 
(and (or (<= (+ x12 0.6230376976) x14) (or (<= (+ x14 0.8960158685) x12) (or (>= (- y12 0.0732114923) y14) (or (>= (- y14 0.0268935425) y12))))) 
(and (or (<= (+ x13 0.9576078738) x14) (or (<= (+ x14 0.8960158685) x13) (or (>= (- y13 0.0470279399) y14) (or (>= (- y14 0.0268935425) y13))))) )))))))))))))))))))))))))))))))))))))))))))))))))))))))))))))))))))))))))))))))))))))))))))))))))))))))))))))))))))))))))))))))))))))))))))))))))))))))))))))))))))))))))))))))))))))))))))))))))))))))))))))))))))))))
(minimize c)
(check-sat)
(get-objectives)
(exit)
